<instance format="XCSP3" type="CSP">
  <variables>
    <var id="x0"> 10 13 16 </var>
    <var id="x1"> 2 4 11 12 17 </var>
    <var id="x2"> 11 13 </var>
    <var id="x3"> 2 4 11 13 </var>
    <var id="x4"> 10 12 13 17 </var>
    <var id="x5"> 10 11 16 17 </var>
    <var id="x6"> 2 4 11 12 </var>
    <var id="x7"> 2 4 13 16 17 </var>
    <var id="x8"> 7 11 13 14 </var>
    <var id="x9"> 1 2 11 17 </var>
    <var id="x10"> 1 13 17 </var>
    <var id="x11"> 1 7 11 17 </var>
    <var id="x12"> 2 7 11 13 14 </var>
    <var id="x13"> 1 2 13 14 </var>
    <var id="x14"> 1 2 7 13 </var>
    <var id="x15"> 5 13 </var>
    <var id="x16"> 9 12 13 17 </var>
    <var id="x17"> 2 4 13 </var>
    <var id="x18"> 4 13 16 </var>
    <var id="x19"> 2 13 16 17 </var>
    <var id="x20"> 16 17 </var>
    <var as="x7" id="x21"/>
    <var id="x22"> 2 5 12 13 </var>
    <var id="x23"> 5 10 13 15 16 </var>
    <var id="x24"> 5 11 </var>
    <var id="x25"> 10 11 13 16 </var>
    <var as="x25" id="x26"/>
    <var id="x27"> 5 10 13 </var>
    <var id="x28"> 0 10 11 16 </var>
    <var id="x29"> 5 11 14..16 </var>
    <var id="x30"> 13..16 </var>
    <var id="x31"> 5 7 9 15 </var>
    <var id="x32"> 1 5 14 15 </var>
    <var id="x33"> 1 3 5 7 11 </var>
    <var id="x34"> 3 11 </var>
    <var id="x35"> 7 9 11 14 </var>
    <var id="x36"> 7 9 11 </var>
    <var id="x37"> 7 14 15 </var>
    <var id="x38"> 1 5 7 </var>
    <var id="x39"> 0 3 7 14 16 </var>
    <var id="x40"> 6 8 14 16 </var>
    <var id="x41"> 3 17 </var>
    <var id="x42"> 6..8 16 </var>
    <var id="x43"> 0 6 7 14 17 </var>
    <var id="x44"> 0 3 7 16 17 </var>
    <var id="x45"> 3 14 16 17 </var>
    <var id="x46"> 6 14 </var>
    <var id="x47"> 0 3 16 </var>
    <var id="x48"> 9 15 16 </var>
    <var id="x49"> 0 3 6 </var>
    <var id="x50"> 2 6 15 </var>
    <var id="x51"> 2 3 16 17 </var>
    <var id="x52"> 0 6 17 </var>
    <var id="x53"> 3 15..17 </var>
    <var id="x54"> 2 6 </var>
    <var id="x55"> 7 10 13 16 </var>
    <var id="x56"> 1 15 16 </var>
    <var id="x57"> 1 12 17 </var>
    <var as="x55" id="x58"/>
    <var id="x59"> 1 7 10 16 17 </var>
    <var id="x60"> 7 12 13 16 </var>
    <var id="x61"> 7 13 15..17 </var>
    <var id="x62"> 1 7 12 13 </var>
    <var id="x63"> 4 12 </var>
    <var id="x64"> 9 12 14 15 </var>
    <var id="x65"> 4 6 7 </var>
    <var id="x66"> 7 9 12 14 </var>
    <var id="x67"> 14 15 </var>
    <var id="x68"> 4 6 7 9 12 </var>
    <var id="x69"> 4 7 14 15 </var>
    <var id="x70"> 5 6 </var>
    <var id="x71"> 0 5..7 11 13 </var>
    <var id="x72"> 6 7 10 11 13 </var>
    <var id="x73"> 10 11 13 </var>
    <var id="x74"> 0 5..7 10 </var>
    <var id="x75"> 6 7 11 </var>
    <var id="x76"> 7 13 </var>
    <var id="x77"> 5 13 16 </var>
    <var id="x78"> 2 5 6 14 16 </var>
    <var id="x79"> 2 3 5 11 </var>
    <var id="x80"> 2 6 11 13 </var>
    <var id="x81"> 5 6 14 </var>
    <var id="x82"> 3 11 16 </var>
    <var id="x83"> 2 13 14 16 </var>
    <var id="x84"> 2 5 13 </var>
    <var id="x85"> 7 8 10 13 </var>
    <var id="x86"> 1 2 7 11 13 </var>
    <var id="x87"> 7 10 12 </var>
    <var id="x88"> 2 7 11..13 </var>
    <var id="x89"> 1 11 </var>
    <var id="x90"> 1 2 10 13 </var>
    <var id="x91"> 2 7 11 12 </var>
    <var id="x92"> 1 2 7 12 13 </var>
    <var id="x93"> 3 7 10 11 14 </var>
    <var id="x94"> 7 10 </var>
    <var id="x95"> 1 14 </var>
    <var id="x96"> 1 12 14 </var>
    <var id="x97"> 1 4 7 11 </var>
    <var id="x98"> 1 10 12 </var>
    <var id="x99"> 1 3 11 14 </var>
    <var id="x100"> 4 7 11 12 </var>
    <var id="x101"> 3 7 13 14 16 </var>
    <var id="x102"> 1 2 5 14 16 </var>
    <var id="x103"> 1 3 5 7 13 </var>
    <var id="x104"> 1 13 14 </var>
    <var id="x105"> 7 13 16 </var>
    <var id="x106"> 2 3 13 16 </var>
    <var id="x107"> 2 7 13 14 16 </var>
    <var id="x108"> 1 3 5 14 16 </var>
    <var id="x109"> 1 2 5 6 </var>
    <var id="x110"> 0 1 5 6 11 </var>
    <var id="x111"> 0 1 12 </var>
    <var id="x112"> 1 2 6 11 </var>
    <var id="x113"> 0 5 6 10 12 </var>
    <var id="x114"> 1 5 6 10 12 </var>
    <var id="x115"> 1 2 6 10 </var>
    <var id="x116"> 2 6 11 12 </var>
    <var id="x117"> 7 13 </var>
    <var id="x118"> 1 5..7 13 </var>
    <var id="x119"> 1 13 17 </var>
    <var id="x120"> 6..8 13 </var>
    <var id="x121"> 1 5 6 13 17 </var>
    <var id="x122"> 2 7 13 </var>
    <var id="x123"> 1 5 17 </var>
    <var id="x124"> 1 2 6 13 </var>
    <var id="x125"> 10 13 16 </var>
    <var id="x126"> 8..10 13 16 </var>
    <var id="x127"> 1 9 13 17 </var>
    <var id="x128"> 8 10 13 16 17 </var>
    <var id="x129"> 10 17 </var>
    <var id="x130"> 1 9 10 13 17 </var>
    <var id="x131"> 1 10 16 17 </var>
    <var id="x132"> 1 4 10 13 </var>
    <var id="x133"> 1 4 11 </var>
    <var id="x134"> 0 1 13 15 </var>
    <var id="x135"> 1 4 6 7 11 13 15 </var>
    <var id="x136"> 11 13 </var>
    <var id="x137"> 0 6 7 </var>
    <var id="x138"> 1 6 13 </var>
    <var id="x139"> 7 11 13 </var>
    <var id="x140"> 0 1 7 13 </var>
  </variables>
  <constraints>
    <group>
      <allDifferent> %... </allDifferent>
      <args> x0 x1 x2 x3 x4 x5 x6 x7 </args>
      <args> x8 x9 x10 x11 x12 x13 x14 </args>
      <args> x15 x16 x17 x18 x19 x20 x21 x22 </args>
      <args> x23 x24 x25 x26 x27 x28 x29 x30 </args>
      <args> x31 x32 x33 x34 x35 x36 x37 x38 </args>
      <args> x39 x40 x41 x42 x43 x44 x45 x46 </args>
      <args> x47 x48 x49 x50 x51 x52 x53 x54 </args>
      <args> x55 x56 x57 x58 x59 x60 x61 x62 </args>
      <args> x63 x64 x65 x66 x67 x68 x69 </args>
      <args> x70 x71 x72 x73 x74 x75 x76 </args>
      <args> x77 x78 x79 x80 x81 x82 x83 x84 </args>
      <args> x85 x86 x87 x88 x89 x90 x91 x92 </args>
      <args> x93 x94 x95 x96 x97 x98 x99 x100 </args>
      <args> x101 x102 x103 x104 x105 x106 x107 x108 </args>
      <args> x109 x110 x111 x112 x113 x114 x115 x116 </args>
      <args> x117 x118 x119 x120 x121 x122 x123 x124 </args>
      <args> x125 x126 x127 x128 x129 x130 x131 x132 </args>
      <args> x133 x134 x135 x136 x137 x138 x139 x140 </args>
      <args> x8 x39 x47 x55 x93 x101 x117 x125 </args>
      <args> x0 x23 x31 x48 x77 x85 x94 x126 </args>
      <args> x32 x40 x56 x70 x78 x95 x102 x109 </args>
      <args> x1 x9 x24 x41 x57 x63 x79 x133 </args>
      <args> x2 x15 x33 x49 x71 x103 x110 x118 </args>
      <args> x16 x64 x96 x104 x111 x119 x127 x134 </args>
      <args> x3 x17 x50 x80 x86 x97 x112 x135 </args>
      <args> x18 x25 x42 x58 x65 x72 x105 x120 </args>
      <args> x19 x26 x34 x51 x73 x106 x128 x136 </args>
      <args> x43 x52 x74 x81 x87 x113 x129 x137 </args>
      <args> x4 x10 x27 x98 x114 x121 x130 x138 </args>
      <args> x5 x11 x20 x28 x44 x59 x82 x131 </args>
      <args> x12 x35 x60 x66 x88 x107 x122 x139 </args>
      <args> x29 x45 x53 x67 x89 x99 x108 x123 </args>
      <args> x13 x46 x54 x90 x115 x124 x132 </args>
      <args> x6 x36 x68 x75 x91 x100 x116 </args>
      <args> x7 x21 x30 x37 x61 x69 x76 x83 </args>
      <args> x14 x22 x38 x62 x84 x92 x140 </args>
    </group>
  </constraints>
</instance>

